testInterfaceWriting.result.result.smt2
unsupported
(error "line 2 column 0: invalid command, '(' expected")
unsupported
(error "line 4 column 0: invalid command, '(' expected")
unsupported
unsupported
